GLPSOL: GLPK LP/MIP Solver, v4.55
Parameter(s) specified in the command line:
 -m tmp.mod
Reading model section from tmp.mod...
Reading data section from tmp.mod...
157 lines were read
Generating obj...
Generating kirhoff...
Generating init_charge...
Generating batt_size...
Model has been successfully generated
GLPK Simplex Optimizer, v4.55
99 rows, 163 columns, 334 non-zeros
Preprocessing...
72 rows, 139 columns, 285 non-zeros
Scaling...
 A: min|aij| =  1.000e+00  max|aij| =  1.000e+00  ratio =  1.000e+00
Problem data seem to be well scaled
Constructing initial basis...
Size of triangular part is 64
      0: obj =   0.000000000e+00  infeas =  8.100e+01 (8)
*    25: obj =   0.000000000e+00  infeas =  0.000e+00 (4)
OPTIMAL LP SOLUTION FOUND
Time used:   0.0 secs
Memory used: 0.4 Mb (428837 bytes)
#OUTPUT:
0
-15 -8 -12 0 -7 0 -15 7 0 -15 0 0 -5 -7 -12 0 0 0 -12 0 -5 0 0 
0 0 0 0 0 0 0 0 0 0 0 0 0 0 0 0 0 0 0 0 0 0 0 
-15 0 -8 0 -15 0 0 0 0 0 0 0 -7 -15 0 0 0 -14 -8 0 1 0 0 
#OUTPUT END
Model has been successfully processed
